
Gurobi 10.0.1 (linux64) logging started Sun Nov 26 15:57:48 2023

Set parameter LogFile to value "ArtificialInstance/ExperimentV2/S2T5K2/BaSp/gurobi91.txt"
Gurobi Optimizer version 10.0.1 build v10.0.1rc0 (linux64)

CPU model: AMD EPYC 7H12 64-Core Processor, instruction set [SSE2|AVX|AVX2]
Thread count: 128 physical cores, 128 logical processors, using up to 32 threads

Academic license 656792 - for non-commercial use only - registered to b.___@student.vu.nl
Optimize a model with 2680 rows, 4080 columns and 13760 nonzeros
Model fingerprint: 0x53aed89d
Variable types: 0 continuous, 4080 integer (4080 binary)
Coefficient statistics:
  Matrix range     [1e+00, 1e+00]
  Objective range  [2e+00, 2e+01]
  Bounds range     [1e+00, 1e+00]
  RHS range        [1e+00, 1e+00]
Found heuristic solution: objective 641.0328958
Presolve time: 0.02s
Presolved: 2680 rows, 4080 columns, 13760 nonzeros
Variable types: 0 continuous, 4080 integer (4080 binary)

Root relaxation: objective 4.856391e+01, 2440 iterations, 0.06 seconds (0.06 work units)

    Nodes    |    Current Node    |     Objective Bounds      |     Work
 Expl Unexpl |  Obj  Depth IntInf | Incumbent    BestBd   Gap | It/Node Time

     0     0   48.56391    0  547  641.03290   48.56391  92.4%     -    0s
H    0     0                     377.7589835   48.56391  87.1%     -    0s
H    0     0                      91.5796980   48.56391  47.0%     -    0s
     0     0   54.64019    0  761   91.57970   54.64019  40.3%     -    0s
H    0     0                      87.1190588   54.64019  37.3%     -    0s
H    0     0                      84.7539072   60.66602  28.4%     -    0s
     0     0   60.66602    0  851   84.75391   60.66602  28.4%     -    0s
     0     0   60.66602    0  840   84.75391   60.66602  28.4%     -    0s
H    0     0                      73.7286660   61.95495  16.0%     -    0s
     0     0   61.95495    0  799   73.72867   61.95495  16.0%     -    0s
     0     0   62.02143    0  744   73.72867   62.02143  15.9%     -    0s
     0     0   62.07956    0  757   73.72867   62.07956  15.8%     -    0s
     0     0   62.07956    0  759   73.72867   62.07956  15.8%     -    0s
H    0     0                      71.1338727   62.92625  11.5%     -    1s
     0     0   62.92625    0  846   71.13387   62.92625  11.5%     -    1s
     0     0   62.92713    0  812   71.13387   62.92713  11.5%     -    1s
H    0     0                      69.3396885   63.62011  8.25%     -    1s
     0     0   63.62011    0  784   69.33969   63.62011  8.25%     -    1s
H    0     0                      68.4751709   63.62011  7.09%     -    1s
     0     0   63.65882    0  811   68.47517   63.65882  7.03%     -    1s
     0     0   63.65882    0  820   68.47517   63.65882  7.03%     -    1s
     0     0   63.66737    0  849   68.47517   63.66737  7.02%     -    1s
     0     0   63.68022    0  814   68.47517   63.68022  7.00%     -    1s
     0     0   63.71472    0  738   68.47517   63.71472  6.95%     -    1s
     0     0   63.71896    0  787   68.47517   63.71896  6.95%     -    1s
     0     0   63.91601    0  684   68.47517   63.91601  6.66%     -    1s
     0     0   63.99200    0  747   68.47517   63.99200  6.55%     -    1s
     0     0   64.02256    0  748   68.47517   64.02256  6.50%     -    1s
     0     0   64.02879    0  753   68.47517   64.02879  6.49%     -    1s
     0     0   64.02879    0  759   68.47517   64.02879  6.49%     -    1s
     0     0   64.08702    0  765   68.47517   64.08702  6.41%     -    1s
     0     0   64.08807    0  805   68.47517   64.08807  6.41%     -    1s
     0     0   64.54158    0  788   68.47517   64.54158  5.74%     -    1s
     0     0   64.54158    0  790   68.47517   64.54158  5.74%     -    1s
     0     0   64.57954    0  762   68.47517   64.57954  5.69%     -    1s
     0     0   64.57954    0  697   68.47517   64.57954  5.69%     -    1s
     0     0   64.57954    0  522   68.47517   64.57954  5.69%     -    2s
     0     0   64.57954    0  778   68.47517   64.57954  5.69%     -    2s
     0     0   64.57954    0  707   68.47517   64.57954  5.69%     -    3s
     0     0   64.57954    0  756   68.47517   64.57954  5.69%     -    3s
     0     0   64.61266    0  709   68.47517   64.61266  5.64%     -    3s
     0     0   64.62012    0  711   68.47517   64.62012  5.63%     -    3s
     0     0   64.62041    0  714   68.47517   64.62041  5.63%     -    3s
     0     0   64.79965    0  773   68.47517   64.79965  5.37%     -    3s
     0     0   64.85711    0  761   68.47517   64.85711  5.28%     -    3s
     0     0   64.86360    0  771   68.47517   64.86360  5.27%     -    3s
     0     0   64.87035    0  754   68.47517   64.87035  5.26%     -    3s
     0     0   64.87035    0  678   68.47517   64.87035  5.26%     -    3s
     0     2   64.87035    0  678   68.47517   64.87035  5.26%     -    3s

Cutting planes:
  Gomory: 13
  Zero half: 158
  RLT: 64

Explored 134 nodes (46056 simplex iterations) in 4.17 seconds (2.59 work units)
Thread count was 32 (of 128 available processors)

Solution count 9: 68.4752 69.3397 71.1339 ... 641.033

Optimal solution found (tolerance 1.00e-04)
Best objective 6.847517086491e+01, best bound 6.847517086491e+01, gap 0.0000%
